Solving original (integer) problem with strategy gdp.hull_exact...
--- Job model.gms Start 02/15/26 04:47:32 52.2.0 d8e408be LEX-LEG x86 64bit/Linux
--- Applying:
    /package/gams/52.2/gmsprmun.txt
--- GAMS Parameters defined
    Input /local/scratch/a/sgusev/repos/k_means/data/gams_gurobi_gdp.hull_exact/no_mode/2026-02-15_04-47-31/original/model.gms
    Output /local/scratch/a/sgusev/repos/k_means/data/gams_gurobi_gdp.hull_exact/no_mode/2026-02-15_04-47-31/original/output.lst
    ScrDir /local/scratch/a/sgusev/repos/k_means/data/gams_gurobi_gdp.hull_exact/no_mode/2026-02-15_04-47-31/original/225a/
    SysDir /package/gams/52.2/
    CurDir /local/scratch/a/sgusev/repos/k_means/data/gams_gurobi_gdp.hull_exact/no_mode/2026-02-15_04-47-31/original/
    LogOption 3
    AppendLog 1
Licensee: David Bernal / SECQUOIA Research Group         G251008+0003Ac-GEN
          Purdue University, Davidson School of Chemical EngineeringDCE4838
          225a/gamslice.dat
          5a82958a-fbca-4a23
          node:66820903 mem:995 cores:48 ipport:57401 v:2                  
          Evaluation license: Not for commercial or production use
          The time-limited license stops working on : Jun 30, 2027
System information: 48 physical cores and 995 Gb physical memory detected
GAMS 52.2.0   Copyright (C) 1987-2025 GAMS Development. All rights reserved
--- Starting compilation
--- model.gms(5407) 2 Mb
--- $echo File /local/scratch/a/sgusev/repos/k_means/data/gams_gurobi_gdp.hull_exact/no_mode/2026-02-15_04-47-31/original/gurobi.opt
--- model.gms(7883) 3 Mb
--- Starting execution: elapsed 0:00:00.027
--- model.gms(5416) 4 Mb
--- Generating MINLP model GAMS_MODEL
--- model.gms(5420) 6 Mb
---   1,654 rows  756 columns  3,997 non-zeroes
---   2,520 nl-code  420 nl-non-zeroes
---   60 discrete-columns
--- Range statistics (absolute non-zero finite values)
--- RHS       [min, max] : [ 1.000E+00, 1.000E+00] - Zero values observed as well
--- Bound     [min, max] : [ 1.000E+00, 1.500E+02] - Zero values observed as well
--- Matrix    [min, max] : [ 1.000E+00, 1.500E+02] - Zero values observed as well
--- model.gms(5420) 4 Mb
--- Executing GUROBI (Solvelink=5): elapsed 0:00:00.035
Reading parameter(s) from "/local/scratch/a/sgusev/repos/k_means/data/gams_gurobi_gdp.hull_exact/no_mode/2026-02-15_04-47-31/original/gurobi.opt"
>>  NonConvex 2
>>  Threads 1
>>  MIPGap 1e-06
>>  MIPGapAbs 1e-10
>>  FeasibilityTol 1e-06
>>  OptimalityTol 1e-06
>>  IntFeasTol 1e-05
Finished reading from "/local/scratch/a/sgusev/repos/k_means/data/gams_gurobi_gdp.hull_exact/no_mode/2026-02-15_04-47-31/original/gurobi.opt"

... GRB_LICENSE_FILE = /local/scratch/a/sgusev/gurobi.lic

    Gurobi           52.2.0 d8e408be Dec 8, 2025           LEG x86 64bit/Linux    

... GAMS/Gurobi Link license.
... GMO Q Extraction (ThreePass): 0.00s

    Gurobi Optimizer version 13.0.0 build v13.0.0rc1 (linux64 - "Oracle Linux Server 9.7")
    
    CPU model: AMD EPYC 7643 48-Core Processor, instruction set [SSE2|AVX|AVX2]
    Thread count: 48 physical cores, 96 logical processors, using up to 1 threads
    
    Non-default parameters:
    TimeLimit  300
    MIPGap  1e-06
    LogToConsole  0
    NonConvex  2
    Threads  1
    
    Optimize a model with 1593 rows, 755 columns and 3561 nonzeros (Min)
    Model fingerprint: 0xb3baefb4
    Model has 15 linear objective coefficients
    Model has 60 quadratic constraints
    Variable types: 695 continuous, 60 integer (0 binary)
    Coefficient statistics:
      Matrix range     [1e+00, 2e+02]
      QMatrix range    [6e-02, 3e+00]
      Objective range  [1e+00, 1e+00]
      Bounds range     [1e+00, 2e+02]
      RHS range        [1e+00, 1e+00]
    Presolve removed 300 rows and 315 columns
    Presolve time: 0.01s
    Presolved: 1941 rows, 1100 columns, 5274 nonzeros
    Presolved model has 300 quadratic constraint(s)
    Variable types: 1040 continuous, 60 integer (60 binary)
    
    Root relaxation: objective 0.000000e+00, 567 iterations, 0.01 seconds (0.01 work units)
    
        Nodes    |    Current Node    |     Objective Bounds      |     Work
     Expl Unexpl |  Obj  Depth IntInf | Incumbent    BestBd   Gap | It/Node Time
    
    H    0     0                      15.8913156    0.00000   100%     -    0s
    *    0     0               0      15.8913156    0.00000   100%     -    0s
         0     0    0.00000    0   20   15.89132    0.00000   100%     -    0s
         0     0    0.00000    0   28   15.89132    0.00000   100%     -    0s
         0     0    0.00000    0   26   15.89132    0.00000   100%     -    0s
         0     0    0.00000    0   31   15.89132    0.00000   100%     -    0s
         0     0    0.00000    0   10   15.89132    0.00000   100%     -    0s
         0     0    0.00000    0   10   15.89132    0.00000   100%     -    0s
         0     0    0.00000    0   26   15.89132    0.00000   100%     -    0s
         0     0    0.00000    0    8   15.89132    0.00000   100%     -    0s
         0     0    0.00000    0    8   15.89132    0.00000   100%     -    0s
         0     0    0.00000    0   27   15.89132    0.00000   100%     -    0s
         0     0    0.00000    0   22   15.89132    0.00000   100%     -    0s
         0     0    0.00000    0   23   15.89132    0.00000   100%     -    0s
         0     0    0.00000    0   23   15.89132    0.00000   100%     -    0s
         0     0    0.00000    0   24   15.89132    0.00000   100%     -    0s
         0     0    0.00000    0   22   15.89132    0.00000   100%     -    0s
         0     0    0.00000    0   22   15.89132    0.00000   100%     -    0s
         0     0    0.00000    0   18   15.89132    0.00000   100%     -    0s
         0     0    0.00000    0   22   15.89132    0.00000   100%     -    0s
         0     0    0.00000    0   22   15.89132    0.00000   100%     -    0s
         0     0    0.00000    0   26   15.89132    0.00000   100%     -    0s
         0     0    0.00000    0   20   15.89132    0.00000   100%     -    0s
         0     0    0.00000    0   21   15.89132    0.00000   100%     -    0s
         0     0    0.00000    0   20   15.89132    0.00000   100%     -    0s
         0     0    0.00000    0   27   15.89132    0.00000   100%     -    0s
         0     0    0.00000    0   20   15.89132    0.00000   100%     -    0s
         0     0    0.00000    0   24   15.89132    0.00000   100%     -    0s
         0     0    0.00000    0   22   15.89132    0.00000   100%     -    0s
         0     0    0.00000    0   27   15.89132    0.00000   100%     -    0s
         0     0    0.00000    0   24   15.89132    0.00000   100%     -    0s
         0     0    0.00000    0   20   15.89132    0.00000   100%     -    0s
         0     0    0.00000    0   20   15.89132    0.00000   100%     -    0s
         0     0    0.00000    0   22   15.89132    0.00000   100%     -    0s
         0     0    0.00000    0   18   15.89132    0.00000   100%     -    0s
         0     0    0.00000    0   23   15.89132    0.00000   100%     -    0s
         0     0    0.00000    0   16   15.89132    0.00000   100%     -    0s
         0     0    0.00000    0   21   15.89132    0.00000   100%     -    0s
         0     0    0.00000    0   18   15.89132    0.00000   100%     -    0s
         0     0    0.00000    0   24   15.89132    0.00000   100%     -    0s
         0     0    0.00000    0   23   15.89132    0.00000   100%     -    0s
         0     0    0.00000    0   21   15.89132    0.00000   100%     -    0s
         0     0    0.00000    0   20   15.89132    0.00000   100%     -    0s
         0     0    0.00000    0   20   15.89132    0.00000   100%     -    0s
         0     0    0.00000    0   18   15.89132    0.00000   100%     -    1s
         0     0    0.00000    0   22   15.89132    0.00000   100%     -    1s
         0     0    0.00000    0   22   15.89132    0.00000   100%     -    1s
         0     0    0.00000    0   22   15.89132    0.00000   100%     -    1s
         0     0    0.00000    0   20   15.89132    0.00000   100%     -    1s
         0     0    0.00000    0   20   15.89132    0.00000   100%     -    1s
         0     0    0.00000    0   20   15.89132    0.00000   100%     -    1s
         0     0    0.00000    0   22   15.89132    0.00000   100%     -    1s
         0     0    0.00000    0   18   15.89132    0.00000   100%     -    1s
         0     0    0.00000    0   16   15.89132    0.00000   100%     -    1s
         0     0    0.00000    0   16   15.89132    0.00000   100%     -    1s
         0     0    0.00000    0   18   15.89132    0.00000   100%     -    1s
         0     0    0.00000    0   18   15.89132    0.00000   100%     -    1s
         0     0    0.00000    0   24   15.89132    0.00000   100%     -    1s
         0     0    0.00000    0   20   15.89132    0.00000   100%     -    1s
         0     0    0.00000    0   22   15.89132    0.00000   100%     -    1s
         0     0    0.00000    0   22   15.89132    0.00000   100%     -    1s
         0     0    0.00000    0   26   15.89132    0.00000   100%     -    1s
         0     0    0.00000    0   24   15.89132    0.00000   100%     -    1s
         0     0    0.00000    0   21   15.89132    0.00000   100%     -    1s
         0     0    0.00000    0   15   15.89132    0.00000   100%     -    1s
         0     0    0.00000    0   23   15.89132    0.00000   100%     -    1s
         0     0    0.00000    0   15   15.89132    0.00000   100%     -    1s
         0     0    0.00000    0   27   15.89132    0.00000   100%     -    1s
         0     0    0.00000    0   18   15.89132    0.00000   100%     -    1s
         0     0    0.00000    0   22   15.89132    0.00000   100%     -    1s
         0     0    0.00000    0   16   15.89132    0.00000   100%     -    1s
         0     0    0.00000    0   18   15.89132    0.00000   100%     -    1s
         0     0    0.00000    0   14   15.89132    0.00000   100%     -    1s
         0     0    0.00000    0   29   15.89132    0.00000   100%     -    1s
         0     0    0.00000    0   18   15.89132    0.00000   100%     -    1s
         0     0    0.00000    0   23   15.89132    0.00000   100%     -    1s
         0     0    0.00000    0   23   15.89132    0.00000   100%     -    1s
         0     0    0.00000    0   23   15.89132    0.00000   100%     -    1s
         0     0    0.00000    0   23   15.89132    0.00000   100%     -    1s
         0     0    0.00000    0   23   15.89132    0.00000   100%     -    1s
         0     0    0.00000    0   23   15.89132    0.00000   100%     -    1s
         0     0    0.00000    0   24   15.89132    0.00000   100%     -    1s
         0     0    0.00000    0   24   15.89132    0.00000   100%     -    1s
         0     0    0.00000    0   24   15.89132    0.00000   100%     -    1s
         0     0    0.00000    0   24   15.89132    0.00000   100%     -    1s
         0     0    0.00000    0   24   15.89132    0.00000   100%     -    1s
         0     0    0.00000    0   22   15.89132    0.00000   100%     -    1s
         0     0    0.00000    0   25   15.89132    0.00000   100%     -    1s
         0     0    0.00000    0   24   15.89132    0.00000   100%     -    1s
         0     0    0.00000    0   26   15.89132    0.00000   100%     -    2s
         0     0    0.00000    0   26   15.89132    0.00000   100%     -    2s
         0     0    0.00000    0   28   15.89132    0.00000   100%     -    2s
         0     0    0.00000    0   26   15.89132    0.00000   100%     -    2s
         0     0    0.00000    0   24   15.89132    0.00000   100%     -    2s
         0     0    0.00000    0   24   15.89132    0.00000   100%     -    2s
         0     0    0.00000    0   24   15.89132    0.00000   100%     -    2s
         0     0    0.00000    0   18   15.89132    0.00000   100%     -    2s
         0     0    0.00000    0   26   15.89132    0.00000   100%     -    2s
         0     0    0.00000    0   24   15.89132    0.00000   100%     -    2s
         0     0    0.00000    0   22   15.89132    0.00000   100%     -    2s
         0     0    0.00000    0   22   15.89132    0.00000   100%     -    2s
         0     0    0.00000    0   22   15.89132    0.00000   100%     -    2s
         0     0    0.00000    0   20   15.89132    0.00000   100%     -    2s
         0     0    0.00000    0   18   15.89132    0.00000   100%     -    2s
         0     0    0.00000    0   18   15.89132    0.00000   100%     -    2s
         0     0    0.00000    0   22   15.89132    0.00000   100%     -    2s
         0     0    0.00000    0   16   15.89132    0.00000   100%     -    2s
         0     0    0.00000    0   22   15.89132    0.00000   100%     -    2s
         0     0    0.00000    0   20   15.89132    0.00000   100%     -    2s
         0     0    0.00000    0   24   15.89132    0.00000   100%     -    2s
         0     0    0.00000    0   24   15.89132    0.00000   100%     -    2s
         0     0    0.00000    0   24   15.89132    0.00000   100%     -    2s
         0     0    0.00000    0   24   15.89132    0.00000   100%     -    2s
         0     0    0.00000    0   26   15.89132    0.00000   100%     -    2s
         0     0    0.00000    0   24   15.89132    0.00000   100%     -    2s
         0     0    0.00000    0   26   15.89132    0.00000   100%     -    2s
         0     0    0.00000    0   26   15.89132    0.00000   100%     -    2s
         0     0    0.00000    0   29   15.89132    0.00000   100%     -    2s
         0     0    0.00000    0   26   15.89132    0.00000   100%     -    2s
         0     0    0.00000    0   26   15.89132    0.00000   100%     -    2s
         0     0    0.00000    0   18   15.89132    0.00000   100%     -    2s
         0     0    0.00000    0   27   15.89132    0.00000   100%     -    2s
         0     0    0.00000    0   18   15.89132    0.00000   100%     -    2s
         0     0    0.00000    0   27   15.89132    0.00000   100%     -    2s
         0     0    0.00000    0   24   15.89132    0.00000   100%     -    2s
         0     0    0.00000    0   26   15.89132    0.00000   100%     -    2s
         0     0    0.00000    0   21   15.89132    0.00000   100%     -    2s
         0     0    0.00000    0   26   15.89132    0.00000   100%     -    2s
         0     0    0.00000    0   20   15.89132    0.00000   100%     -    2s
         0     0    0.00000    0   28   15.89132    0.00000   100%     -    2s
         0     0    0.00000    0   21   15.89132    0.00000   100%     -    2s
         0     0    0.00000    0   21   15.89132    0.00000   100%     -    2s
         0     0    0.00000    0   21   15.89132    0.00000   100%     -    3s
         0     0    0.00000    0   23   15.89132    0.00000   100%     -    3s
         0     0    0.00000    0   23   15.89132    0.00000   100%     -    3s
         0     0    0.00000    0   23   15.89132    0.00000   100%     -    3s
         0     0    0.00000    0   19   15.89132    0.00000   100%     -    3s
         0     0    0.00000    0   24   15.89132    0.00000   100%     -    3s
         0     0    0.00000    0   24   15.89132    0.00000   100%     -    3s
         0     0    0.00000    0   24   15.89132    0.00000   100%     -    3s
         0     0    0.00000    0   24   15.89132    0.00000   100%     -    3s
         0     0    0.00000    0   24   15.89132    0.00000   100%     -    3s
         0     0    0.00000    0   24   15.89132    0.00000   100%     -    3s
         0     0    0.00000    0   26   15.89132    0.00000   100%     -    3s
         0     0    0.00000    0   22   15.89132    0.00000   100%     -    3s
         0     0    0.00000    0   28   15.89132    0.00000   100%     -    3s
         0     0    0.00000    0   16   15.89132    0.00000   100%     -    3s
         0     0    0.00000    0   24   15.89132    0.00000   100%     -    3s
         0     0    0.00000    0   18   15.89132    0.00000   100%     -    3s
         0     0    0.00000    0   24   15.89132    0.00000   100%     -    3s
         0     0    0.00000    0   22   15.89132    0.00000   100%     -    3s
         0     0    0.00000    0   20   15.89132    0.00000   100%     -    3s
         0     0    0.00000    0   16   15.89132    0.00000   100%     -    3s
         0     0    0.00000    0   29   15.89132    0.00000   100%     -    3s
         0     0    0.00000    0   19   15.89132    0.00000   100%     -    3s
         0     0    0.00000    0   24   15.89132    0.00000   100%     -    3s
         0     0    0.00000    0   22   15.89132    0.00000   100%     -    3s
         0     0    0.00000    0   20   15.89132    0.00000   100%     -    3s
         0     0    0.00000    0   20   15.89132    0.00000   100%     -    3s
         0     0    0.00000    0   23   15.89132    0.00000   100%     -    3s
         0     0    0.00000    0   23   15.89132    0.00000   100%     -    3s
         0     0    0.00000    0   27   15.89132    0.00000   100%     -    3s
         0     0    0.00000    0   16   15.89132    0.00000   100%     -    3s
         0     0    0.00000    0   20   15.89132    0.00000   100%     -    3s
         0     0    0.00000    0   18   15.89132    0.00000   100%     -    3s
         0     0    0.00000    0   23   15.89132    0.00000   100%     -    3s
         0     0    0.00000    0   14   15.89132    0.00000   100%     -    3s
         0     0    0.00000    0   24   15.89132    0.00000   100%     -    3s
         0     0    0.00000    0   18   15.89132    0.00000   100%     -    3s
         0     0    0.00000    0   21   15.89132    0.00000   100%     -    3s
         0     0    0.00000    0   21   15.89132    0.00000   100%     -    3s
         0     0    0.00000    0   26   15.89132    0.00000   100%     -    3s
         0     0    0.00000    0   22   15.89132    0.00000   100%     -    4s
         0     0    0.00000    0   26   15.89132    0.00000   100%     -    4s
         0     0    0.00000    0   18   15.89132    0.00000   100%     -    4s
         0     0    0.00000    0   22   15.89132    0.00000   100%     -    4s
         0     0    0.00000    0   20   15.89132    0.00000   100%     -    4s
         0     0    0.00000    0   20   15.89132    0.00000   100%     -    4s
         0     0    0.00000    0   20   15.89132    0.00000   100%     -    4s
         0     0    0.00000    0   26   15.89132    0.00000   100%     -    4s
         0     0    0.00000    0   24   15.89132    0.00000   100%     -    4s
         0     0    0.00000    0   26   15.89132    0.00000   100%     -    4s
         0     0    0.00000    0   17   15.89132    0.00000   100%     -    4s
         0     0    0.00000    0   20   15.89132    0.00000   100%     -    4s
         0     0    0.00000    0   20   15.89132    0.00000   100%     -    4s
         0     0    0.00000    0   24   15.89132    0.00000   100%     -    4s
         0     0    0.00000    0   24   15.89132    0.00000   100%     -    4s
         0     0    0.00000    0   24   15.89132    0.00000   100%     -    4s
         0     0    0.00000    0   20   15.89132    0.00000   100%     -    4s
         0     0    0.00000    0   25   15.89132    0.00000   100%     -    4s
         0     0    0.00000    0   19   15.89132    0.00000   100%     -    4s
         0     0    0.00000    0   22   15.89132    0.00000   100%     -    4s
         0     0    0.00000    0   22   15.89132    0.00000   100%     -    4s
         0     0    0.00000    0   24   15.89132    0.00000   100%     -    4s
         0     0    0.00000    0   24   15.89132    0.00000   100%     -    4s
         0     0    0.00000    0   24   15.89132    0.00000   100%     -    4s
         0     0    0.00000    0   24   15.89132    0.00000   100%     -    4s
         0     0    0.00000    0   28   15.89132    0.00000   100%     -    4s
         0     0    0.00000    0   18   15.89132    0.00000   100%     -    4s
         0     0    0.00000    0   23   15.89132    0.00000   100%     -    4s
         0     0    0.00000    0   23   15.89132    0.00000   100%     -    4s
         0     0    0.00000    0   26   15.89132    0.00000   100%     -    4s
         0     0    0.00000    0   22   15.89132    0.00000   100%     -    4s
         0     0    0.00000    0   28   15.89132    0.00000   100%     -    4s
         0     0    0.00000    0   20   15.89132    0.00000   100%     -    4s
    H    0     0                      15.3958840    0.00000   100%     -    4s
         0     0    0.00000    0   24   15.39588    0.00000   100%     -    5s
         0     2    0.00000    0   24   15.39588    0.00000   100%     -    5s
    H    3     3                      15.3958806    0.00000   100%   196    5s
    H    3     3                      15.3958789    0.00000   100%   196    5s
    H   74    68                      14.4545682    0.00000   100%   223    5s
    H   85    79                      14.1735866    0.00000   100%   227    6s
    H   99    93                      14.1735834    0.00000   100%   207    6s
    H   99    93                      14.1735819    0.00000   100%   207    6s
    H  112   106                      14.1100272    0.00000   100%   189    6s
    H  112   106                      14.0533458    0.00000   100%   189    6s
    H  148   130                      14.0533453    0.00000   100%   178    6s
    H  165   147                      14.0440057    0.00000   100%   167    6s
    H  185   159                      14.0440056    0.00000   100%   158    6s
    H  185   159                      14.0422068    0.00000   100%   158    6s
    H  188   162                      14.0422055    0.00000   100%   163    6s
    H  190   164                      14.0422054    0.00000   100%   168    6s
    H  222   188                      14.0422052    0.00000   100%   165    6s
    H  229   189                      13.6362950    0.00000   100%   173    6s
    H  235   195                      13.5616769    0.00000   100%   175    6s
    H  248   208                      13.5440153    0.00000   100%   169    6s
    H  248   204                      13.2215020    0.00000   100%   169    6s
    H  260   206                      13.2215000    0.00000   100%   166    7s
    H  260   206                      13.2214989    0.00000   100%   166    7s
       304   244   12.16162   31   30   13.22150    0.00000   100%   169   10s
       356   278    9.18722   19   35   13.22150    0.00000   100%   144   15s
    H  392   285                      13.2214989    0.00000   100%   387   19s
    H  393   270                      13.2214987    0.00000   100%   387   19s
       399   276    0.00000   17   30   13.22150    0.00000   100%   389   20s
    H  414   268                      13.2214986    0.00000   100%   391   20s
    H  419   257                      13.0553115    0.00000   100%   390   21s
    H  423   246                      12.9169373    0.00000   100%   390   21s
    H  424   234                      12.9169357    0.00000   100%   390   21s
    H  424   222                      12.9169351    0.00000   100%   390   21s
    H  431   214                      12.9162734    0.00000   100%   388   21s
    H  432   204                      12.8102974    0.00000   100%   387   21s
    H  434   194                      12.7538202    0.00000   100%   386   21s
    H  435   185                      12.7441452    0.00000   100%   386   21s
    H  439   179                      12.7441452    0.00000   100%   383   21s
    H  440   169                      12.7425854    0.00000   100%   382   21s
    H  454   163                      12.7425852    0.00000   100%   373   22s
    H  455   155                      12.7425844    0.00000   100%   374   22s
    H  455   147                      12.7107402    0.00000   100%   374   22s
    H  492   164                      12.7107378    0.00000   100%   366   23s
    H  506   152                      12.7107374    0.00000   100%   357   23s
       537   175    5.83250   31   27   12.71074    0.00000   100%   364   25s
    H  588   189                      12.7107372    0.00000   100%   357   26s
    H  618   180                      11.5052797    0.00000   100%   359   26s
    H  621   176                      11.5052751    0.00000   100%   360   27s
    H  623   177                      11.5052751    0.00000   100%   361   27s
    H  626   180                      11.5052750    0.00000   100%   362   27s
    H  654   208                      11.5052750    0.00000   100%   356   27s
    H  708   249                      11.0385365    0.00000   100%   356   28s
    H  708   249                      11.0385310    0.00000   100%   356   28s
    H  708   249                      11.0385307    0.00000   100%   356   28s
    H  723   264                      11.0385304    0.00000   100%   351   28s
    H  723   264                      11.0385303    0.00000   100%   351   28s
    H  748   269                      11.0385301    0.00000   100%   348   29s
    H  755   276                      11.0385300    0.00000   100%   349   29s
    H  799   303                      11.0385298    0.00000   100%   344   29s
       800   306    2.68891   21   38   11.03853    0.00000   100%   345   30s
    H  917   397                      11.0385297    0.00000   100%   343   31s
    H 1036   496                      11.0385289    0.00000   100%   341   33s
    H 1036   489                      10.7953133    0.00000   100%   341   33s
    H 1043   494                      10.7587602    0.00000   100%   342   33s
    H 1073   512                      10.7572224    0.00000   100%   337   33s
    H 1074   498                      10.5705963    0.00000   100%   338   33s
    H 1083   507                      10.5705962    0.00000   100%   338   33s
    H 1083   507                      10.5699186    0.00000   100%   338   33s
    H 1131   541                      10.5699168    0.00000   100%   331   34s
    H 1163   573                      10.5699167    0.00000   100%   335   34s
    H 1163   570                      10.4893972    0.00000   100%   335   34s
    H 1188   581                      10.4893967    0.00000   100%   332   34s
    H 1188   580                      10.4759085    0.00000   100%   332   34s
    H 1191   583                      10.4759084    0.00000   100%   333   34s
      1193   587    1.02391   23   40   10.47591    0.00000   100%   336   35s
    H 1195   584                      10.3966994    0.00000   100%   336   35s
    H 1204   593                      10.3965870    0.00000   100%   336   35s
    H 1223   612                      10.3965859    0.00000   100%   335   35s
    H 1246   619                      10.3965849    0.00000   100%   334   35s
    H 1287   648                      10.3965839    0.00000   100%   331   35s
    H 1289   650                      10.3812035    0.00000   100%   332   35s
    H 1293   654                      10.3812033    0.00000   100%   333   36s
    H 1334   683                      10.3812031    0.00000   100%   329   36s
    H 1388   715                      10.3812029    0.00000   100%   329   37s
    H 1429   740                      10.3812029    0.00000   100%   330   37s
    H 1434   745                      10.3808784    0.00000   100%   332   37s
    H 1595   832                      10.3808781    0.00000   100%   334   40s
    H 1804   956                      10.3808777    0.02177   100%   333   42s
    H 1807   959                      10.3808777    0.02621   100%   333   42s
    H 1830   974                      10.3242158    0.02621   100%   333   42s
    H 1909  1020                      10.3242157    0.08812  99.1%   331   43s
      2024  1087    2.07637   27   29   10.32422    0.13003  98.7%   333   45s
      2671  1459     cutoff   35        10.32422    0.33207  96.8%   325   50s
      3388  1838    5.24105   28   29   10.32422    0.70923  93.1%   313   55s
      4055  2201    6.52838   33   26   10.32422    0.87103  91.6%   310   60s
      4764  2548    5.10473   28   28   10.32422    1.08525  89.5%   303   65s
      5514  2902    6.55394   28   28   10.32422    1.26421  87.8%   296   70s
      6329  3279    9.19650   34   22   10.32422    1.42416  86.2%   289   75s
      7172  3695    9.33908   32   19   10.32422    1.67529  83.8%   282   80s
      8019  4100    5.89834   27   30   10.32422    1.79522  82.6%   276   85s
      8847  4519   10.25002   30   19   10.32422    1.91545  81.4%   271   90s
      9698  4945    8.58629   30   23   10.32422    2.02114  80.4%   269   95s
     10594  5313    6.25563   24   27   10.32422    2.18090  78.9%   264  100s
     11458  5691    2.57867   23   39   10.32422    2.27927  77.9%   261  105s
     12395  6127    5.09858   29   27   10.32422    2.35838  77.2%   257  110s
     13210  6460    4.87069   21   35   10.32422    2.45836  76.2%   256  115s
     14051  6838    6.45474   25   27   10.32422    2.52847  75.5%   255  120s
     14935  7213    9.67493   32   21   10.32422    2.59884  74.8%   252  125s
     15588  7515    2.95606   19   37   10.32422    2.63127  74.5%   253  130s
     16414  7867    2.80062   23   34   10.32422    2.68924  74.0%   250  135s
     17184  8189    6.78938   34   20   10.32422    2.73813  73.5%   250  140s
     18047  8526    9.79989   29   20   10.32422    2.79521  72.9%   248  145s
     18980  8897    7.59085   23   27   10.32422    2.87076  72.2%   246  150s
     19824  9247    5.12468   26   35   10.32422    2.94518  71.5%   245  155s
     20657  9617    3.07815   24   34   10.32422    2.98426  71.1%   245  160s
     21521  9968    8.36425   29   21   10.32422    3.04041  70.6%   244  165s
     22402 10317    6.44714   26   31   10.32422    3.09638  70.0%   243  170s
     23232 10648    9.77453   30   26   10.32422    3.14279  69.6%   242  175s
     24253 11019    7.78516   28   24   10.32422    3.21133  68.9%   240  180s
     25069 11367    5.86361   26   30   10.32422    3.24536  68.6%   240  185s
     26037 11736    8.51109   32   23   10.32422    3.30139  68.0%   238  190s
     27038 12119    4.84031   27   29   10.32422    3.34964  67.6%   236  195s
     27985 12485    5.39997   19   33   10.32422    3.39924  67.1%   235  200s
     28932 12849    6.62908   28   26   10.32422    3.44313  66.6%   234  205s
     29898 13224    7.39113   28   25   10.32422    3.49548  66.1%   233  210s
     30881 13590    5.90118   27   34   10.32422    3.54458  65.7%   232  215s
    H31256 13544                      10.0959639    3.55600  64.8%   232  216s
     31363 13560     cutoff   33        10.09596    3.56066  64.7%   231  220s
    H31468 13593                      10.0959638    3.56433  64.7%   231  220s
    H31576 13623                      10.0959638    3.57129  64.6%   231  221s
    H31681 13666                      10.0959638    3.57521  64.6%   231  221s
    H31733 13685                      10.0959638    3.57922  64.5%   231  222s
     32170 13842    8.03914   27   25   10.09596    3.58660  64.5%   231  225s
     33161 14143    7.54277   27   27   10.09596    3.63316  64.0%   230  230s
     34135 14474    4.36779   29   28   10.09596    3.68115  63.5%   229  235s
     35107 14815    4.94744   27   27   10.09596    3.71781  63.2%   228  240s
    H35261 14875                      10.0959637    3.72209  63.1%   228  240s
     36051 15156    6.91626   28   29   10.09596    3.75492  62.8%   227  245s
    H36256 15218                      10.0959637    3.75923  62.8%   227  246s
     36949 15437    6.21516   26   24   10.09596    3.78622  62.5%   227  250s
    H37365 15582                      10.0959637    3.80142  62.3%   226  252s
    H37839 15747                      10.0959636    3.82367  62.1%   226  254s
     37894 15766    9.94391   38   19   10.09596    3.82563  62.1%   226  255s
    H37944 15780                      10.0959636    3.82613  62.1%   226  255s
     38893 16094    9.30560   33   19   10.09596    3.85970  61.8%   225  260s
    H39745 16365                      10.0959636    3.89404  61.4%   225  264s
     39813 16391    6.37017   25   28   10.09596    3.89764  61.4%   225  265s
     40807 16744    9.77089   34   16   10.09596    3.92496  61.1%   224  270s
     41752 17054    6.06098   24   32   10.09596    3.95761  60.8%   224  275s
    H41899 17111                      10.0959636    3.96265  60.8%   224  275s
    H42056 17146                      10.0959636    3.96689  60.7%   224  276s
    H42108 17161                      10.0959636    3.96992  60.7%   224  277s
    H42265 17223                      10.0959636    3.97835  60.6%   223  277s
    H42476 17289                      10.0959636    3.98654  60.5%   223  278s
     42699 17354     cutoff   36        10.09596    3.99200  60.5%   223  280s
     43683 17692    8.01196   30   23   10.09596    4.02076  60.2%   222  285s
    H44535 17965                      10.0959636    4.04236  60.0%   222  289s
     44684 18003    6.24301   28   25   10.09596    4.04815  59.9%   222  290s
     45649 18291    9.21772   27   24   10.09596    4.07300  59.7%   221  295s
    
    Cutting planes:
      Gomory: 3
      Flow cover: 19
    
    Explored 46708 nodes (10416587 simplex iterations) in 300.00 seconds (335.73 work units)
    Thread count was 1 (of 96 available processors)
    
    Solution count 10: 10.096 10.3242 10.3809 ... 15.8913
    
    Time limit reached
    Best objective 1.009596356937e+01, best bound 4.107074193338e+00, gap 59.3196%
    
    User-callback calls 46912, time in user-callback 0.00 sec

--- Reading solution for model GAMS_MODEL
***
*** Solver did not provide marginals for model GAMS_MODEL
***
--- Executing after solve: elapsed 0:05:00.079
--- model.gms(5423) 4 Mb
--- model.gms(7883) 6 Mb
--- Putfile results /local/scratch/a/sgusev/repos/k_means/data/gams_gurobi_gdp.hull_exact/no_mode/2026-02-15_04-47-31/original/results.dat
--- Putfile statresults /local/scratch/a/sgusev/repos/k_means/data/gams_gurobi_gdp.hull_exact/no_mode/2026-02-15_04-47-31/original/resultsstat.dat
*** Status: Normal completion
--- Job model.gms Stop 02/15/26 04:52:32 elapsed 0:05:00.083
Original problem solved. Time taken: 300.70678997039795 seconds
Original objective value: 10.0959635693668
